(set-logic QF_S)
(set-option :strings-exp true)
(set-option :produce-models true)
(declare-fun sigmaStar_0 () String)
(declare-fun sigmaStar_4 () String)
(declare-fun literal_10 () String)
(assert (= literal_10 "\x3c\x61\x20\x68\x72\x65\x66\x3d\x5c\x22\x6c\x61\x6e\x67\x2e\x70\x68\x70\x3f\x6d\x6f\x64\x65\x3d\x63\x6f\x6d\x70\x61\x72\x65\x26\x61\x6d\x70\x3b\x63\x75\x72\x72\x65\x6e\x74\x66\x69\x6c\x65\x3d\x2f\x6c\x61\x6e\x67\x2f\x65\x6e\x5f\x75\x74\x66\x38\x5c\x22\x3e\x2f\x6c\x61\x6e\x67\x2f\x65\x6e\x5f\x75\x74\x66\x38\x3c\x2f\x61\x3e\x20\x26\x6e\x62\x73\x70\x3b\x20"))
(assert (str.in.re literal_10 (re.++ (re.* re.allchar) (re.++ (str.to.re "\x5c\x3c\x53\x43\x52\x49\x50\x54") (re.* re.allchar)))))
(check-sat)
(get-model)
